100
32
21
15
27
1
5
26
11
25
9
17
15
1
10
27
13
2
4
1
5
3
3
11
1
2
14
16
11
5
24
2
27
3
2
3
4
11
17
1
4
17
2
3
3
2
1
2
1
16
20
1
3
4
1
2
3
5
2
2
3
17
4
3
1
21
17
1
6
5
1
1
3
17
2
2
1
1
1
7
6
2
17
2
2
6
4
2
4
4
1
2
20
2
1
18
2
1
10
1
2
1